Tried aggregator 2 times.
MIP Presolve eliminated 4 rows and 2 columns.
MIP Presolve modified 12 coefficients.
Aggregator did 12 substitutions.
Reduced MIP has 72 rows, 69 columns, and 180 nonzeros.
Reduced MIP has 38 binaries, 7 generals, 0 SOSs, and 4 indicators.
Presolve time = 0.00 sec. (0.15 ticks)
Found incumbent of value 7.000000 after 0.00 sec. (0.26 ticks)
Probing fixed 3 vars, tightened 10 bounds.
Probing time = 0.00 sec. (0.09 ticks)
Tried aggregator 2 times.
MIP Presolve eliminated 4 rows and 5 columns.
MIP Presolve modified 42 coefficients.
Aggregator did 27 substitutions.
Reduced MIP has 41 rows, 37 columns, and 131 nonzeros.
Reduced MIP has 28 binaries, 9 generals, 0 SOSs, and 4 indicators.
Presolve time = 0.00 sec. (0.15 ticks)
Probing time = 0.00 sec. (0.03 ticks)
Tried aggregator 1 time.
Reduced MIP has 41 rows, 37 columns, and 131 nonzeros.
Reduced MIP has 28 binaries, 9 generals, 0 SOSs, and 4 indicators.
Presolve time = 0.00 sec. (0.06 ticks)
Probing time = 0.00 sec. (0.03 ticks)
Clique table members: 12.
MIP emphasis: balance optimality and feasibility.
MIP search method: dynamic search.
Parallel mode: deterministic, using up to 4 threads.
Root relaxation solution time = 0.00 sec. (0.08 ticks)

        Nodes                                         Cuts/
   Node  Left     Objective  IInf  Best Integer    Best Bound    ItCnt     Gap

*     0+    0                            7.0000        1.0000       18   85.71%
*     0+    0                            4.0000        1.0000       18   75.00%
*     0+    0                            2.0000        1.0000       18   50.00%
      0     0        1.0000    12        2.0000        1.0000       18   50.00%
*     0     0      integral     0        1.0000       Cuts: 7       33    0.00%
      0     0        cutoff              1.0000        1.0000       33    0.00%
Elapsed time = 0.01 sec. (1.06 ticks, tree = 0.00 MB, solutions = 4)

Implied bound cuts applied:  2
Mixed integer rounding cuts applied:  1
Zero-half cuts applied:  1
Gomory fractional cuts applied:  2

Root node processing (before b&c):
  Real time             =    0.01 sec. (1.06 ticks)
Parallel b&c, 4 threads:
  Real time             =    0.00 sec. (0.00 ticks)
  Sync time (average)   =    0.00 sec.
  Wait time (average)   =    0.00 sec.
                          ------------
Total (root+branch&cut) =    0.01 sec. (1.06 ticks)
